certificates/rado_a11_c92_N27.cnf
c Rad2 upper bound instance: x1 + 11*x2 - x3 = 92, interval [1,27]
p cnf 27 128
1 8 9 0
-1 -8 -9 0
1 10 19 0
-1 -10 -19 0
2 9 0
-2 -9 0
2 10 20 0
-2 -10 -20 0
3 9 10 0
-3 -9 -10 0
3 10 21 0
-3 -10 -21 0
4 9 11 0
-4 -9 -11 0
4 10 22 0
-4 -10 -22 0
1 5 8 0
-1 -5 -8 0
5 9 12 0
-5 -9 -12 0
5 10 23 0
-5 -10 -23 0
2 6 8 0
-2 -6 -8 0
6 9 13 0
-6 -9 -13 0
6 10 24 0
-6 -10 -24 0
3 7 8 0
-3 -7 -8 0
7 9 14 0
-7 -9 -14 0
7 10 25 0
-7 -10 -25 0
4 8 0
-4 -8 0
8 9 15 0
-8 -9 -15 0
8 10 26 0
-8 -10 -26 0
5 8 9 0
-5 -8 -9 0
9 16 0
-9 -16 0
9 10 27 0
-9 -10 -27 0
6 8 10 0
-6 -8 -10 0
9 10 17 0
-9 -10 -17 0
7 8 11 0
-7 -8 -11 0
9 11 18 0
-9 -11 -18 0
8 12 0
-8 -12 0
9 12 19 0
-9 -12 -19 0
8 9 13 0
-8 -9 -13 0
9 13 20 0
-9 -13 -20 0
8 10 14 0
-8 -10 -14 0
9 14 21 0
-9 -14 -21 0
8 11 15 0
-8 -11 -15 0
9 15 22 0
-9 -15 -22 0
1 7 16 0
-1 -7 -16 0
8 12 16 0
-8 -12 -16 0
9 16 23 0
-9 -16 -23 0
2 7 17 0
-2 -7 -17 0
8 13 17 0
-8 -13 -17 0
9 17 24 0
-9 -17 -24 0
3 7 18 0
-3 -7 -18 0
8 14 18 0
-8 -14 -18 0
9 18 25 0
-9 -18 -25 0
4 7 19 0
-4 -7 -19 0
8 15 19 0
-8 -15 -19 0
9 19 26 0
-9 -19 -26 0
5 7 20 0
-5 -7 -20 0
8 16 20 0
-8 -16 -20 0
9 20 27 0
-9 -20 -27 0
6 7 21 0
-6 -7 -21 0
8 17 21 0
-8 -17 -21 0
7 22 0
-7 -22 0
8 18 22 0
-8 -18 -22 0
7 8 23 0
-7 -8 -23 0
8 19 23 0
-8 -19 -23 0
7 9 24 0
-7 -9 -24 0
8 20 24 0
-8 -20 -24 0
8 21 25 0
-8 -21 -25 0
7 11 26 0
-7 -11 -26 0
8 22 26 0
-8 -22 -26 0
1 6 27 0
-1 -6 -27 0
7 12 27 0
-7 -12 -27 0
8 23 27 0
-8 -23 -27 0
