certificates/rado_a11_c92_N27.drat
8 -27 0
-26 -8 0
22 -27 0
-10 -27 0
-8 -27 0
d -8 -23 -27 0
-27 0
-8 10 0
10 0
8 0
-4 0
-26 0
-12 0
-14 0
-6 0
7 0
1 0
-22 0
-11 0
-3 0
-23 0
-25 0
-9 0
-5 0
-16 0
-19 0
0
